(set-option :produce-models true)
(set-logic QF_UF)
(declare-fun p45() Bool)
(declare-fun p8() Bool)
(declare-fun p2() Bool)
(declare-fun p33() Bool)
(declare-fun p1() Bool)
(declare-fun p13() Bool)
(declare-fun p26() Bool)
(declare-fun p31() Bool)
(declare-fun p35() Bool)
(declare-fun p49() Bool)
(declare-fun p53() Bool)
(declare-fun p5() Bool)
(declare-fun p22() Bool)
(declare-fun p40() Bool)
(declare-fun p7() Bool)
(declare-fun p54() Bool)
(declare-fun p34() Bool)
(declare-fun p51() Bool)
(declare-fun p57() Bool)
(declare-fun p56() Bool)
(declare-fun p36() Bool)
(declare-fun p32() Bool)
(declare-fun p18() Bool)
(declare-fun p42() Bool)
(declare-fun p9() Bool)
(declare-fun p3() Bool)
(declare-fun p43() Bool)
(declare-fun p52() Bool)
(declare-fun p58() Bool)
(declare-fun p27() Bool)
(declare-fun p59() Bool)
(declare-fun p17() Bool)
(declare-fun p29() Bool)
(declare-fun p37() Bool)
(declare-fun p23() Bool)
(declare-fun p44() Bool)
(declare-fun p14() Bool)
(declare-fun p48() Bool)
(declare-fun p19() Bool)
(declare-fun p0() Bool)
(declare-fun p47() Bool)
(declare-fun p15() Bool)
(declare-fun p39() Bool)
(declare-fun p46() Bool)
(declare-fun p16() Bool)
(declare-fun p12() Bool)
(declare-fun p20() Bool)
(declare-fun p4() Bool)
(declare-fun p30() Bool)
(declare-fun p6() Bool)
(declare-fun p24() Bool)
(declare-fun p38() Bool)
(declare-fun p11() Bool)
(declare-fun p50() Bool)
(declare-fun p25() Bool)
(declare-fun p41() Bool)
(declare-fun p10() Bool)
(declare-fun p28() Bool)
(declare-fun p55() Bool)
(declare-fun p21() Bool)
(assert
(and (or p45 (not p8) (not p2)) (or (not p33) p1 (not p13)) (or p26 (not p31) (not p35)) (or (not p49) p53 p5) (or (not p22) p8 (not p40)) (or (not p7) p54 p54) (or p34 (not p51) p57) (or (not p49) p56 p36) (or p32 (not p18) p42) (or p9 p40 (not p5)) (or p3 p7 p43) (or (not p52) p13 (not p58)) (or p8 (not p33) p45) (or (not p27) (not p59) p18) (or (not p17) p29 (not p37)) (or (not p23) p56 (not p13)) (or p32 p44 p14) (or p49 (not p48) p17) (or p19 (not p14) p0) (or p47 (not p15) (not p8)) (or (not p39) p59 (not p8)) (or p5 (not p53) p46) (or (not p32) p29 (not p16)) (or (not p43) (not p13) (not p23)) (or (not p40) (not p54) p12) (or p12 (not p46) (not p56)) (or (not p15) p17 (not p40)) (or p7 (not p53) (not p40)) (or p20 (not p26) p37) (or (not p59) p4 (not p7)) (or p30 p12 p33) (or (not p14) p4 (not p6)) (or (not p59) p23 p14) (or (not p24) (not p56) p1) (or (not p34) p32 (not p18)) (or p20 (not p9) (not p38)) (or (not p11) (not p50) (not p50)) (or p35 p24 p6) (or p25 (not p29) p41) (or p38 p38 (not p43)) (or (not p9) (not p41) p10) (or (not p37) (not p57) p24) (or p20 (not p37) (not p25)) (or p23 p0 p43) (or p33 (not p19) p52) (or p1 p17 (not p42)) (or (not p48) (not p58) p16) (or (not p4) p28 (not p1)) (or (not p48) (not p58) p54) (or (not p32) p53 (not p30)) (or (not p57) (not p34) (not p15)) (or (not p4) (not p41) p44) (or p32 p20 (not p51)) (or (not p48) p25 (not p33)) (or p43 p1 p40) (or p5 p18 p49) (or (not p8) p26 p6) (or p13 (not p8) (not p11)) (or (not p48) (not p31) p35) (or p7 (not p57) p35) (or p55 p14 p17) (or p6 (not p11) p48) (or p30 p56 (not p18)) (or p23 p59 p16) (or (not p48) (not p46) (not p22)) (or (not p2) p26 (not p18)) (or p13 p58 p20) (or p37 p43 p1) (or (not p20) p58 (not p28)) (or p19 (not p48) (not p3)) (or (not p6) p10 p57) (or p47 (not p2) (not p22)) (or p43 (not p43) p33) (or (not p13) p8 p54) (or (not p40) p15 (not p5)) (or p14 (not p16) (not p35)) (or (not p4) p27 p19) (or (not p5) (not p25) (not p25)) (or (not p12) (not p12) p30) (or p59 p48 (not p16)) (or (not p53) (not p22) (not p54)) (or (not p53) (not p40) p49) (or (not p13) (not p28) p15) (or p19 (not p54) (not p12)) (or p35 (not p26) p2) (or (not p32) p9 (not p26)) (or (not p40) (not p17) (not p3)) (or p29 p11 p9) (or p44 p23 p18) (or p39 p31 (not p8)) (or p22 (not p23) (not p50)) (or (not p8) p24 (not p16)) (or (not p46) p32 (not p32)) (or (not p46) (not p26) (not p31)) (or (not p32) p23 p8) (or (not p48) (not p24) (not p7)) (or (not p3) p30 (not p7)) (or p25 (not p55) p3) (or p33 (not p8) (not p9)) (or (not p22) (not p27) (not p17)) (or p56 (not p5) p51) (or (not p30) (not p0) (not p23)) (or (not p48) (not p24) (not p41)) (or p33 (not p46) p42) (or (not p51) (not p29) (not p49)) (or p1 p42 (not p52)) (or p8 (not p48) (not p2)) (or (not p53) p41 (not p48)) (or p34 p24 (not p4)) (or (not p24) (not p34) (not p42)) (or (not p20) p2 (not p43)) (or (not p30) p1 p58) (or p54 p1 p24) (or (not p17) (not p3) (not p55)) (or (not p47) (not p29) (not p11)) (or p18 p32 (not p16)) (or p36 p48 p17) (or (not p2) p3 (not p13)) (or p46 (not p53) (not p43)) (or (not p7) p55 (not p9)) (or (not p3) p9 (not p56)) (or p46 p51 p5) (or (not p10) p4 p41) (or p4 (not p18) (not p15)) (or (not p10) p42 (not p22)) (or p6 (not p5) (not p35)) (or p30 (not p12) p27) (or (not p19) (not p3) p25) (or (not p45) p27 p37) (or p52 (not p0) (not p17)) (or p16 p10 p36) (or p8 (not p53) (not p59)) (or (not p37) (not p13) p21) (or (not p45) (not p26) p31) (or (not p8) p4 (not p6)) (or p14 (not p17) p8) (or p56 (not p55) (not p28)) (or (not p7) p38 (not p41)) (or (not p58) p16 p53) (or (not p0) (not p46) p1) (or p40 (not p18) p11) (or (not p17) p37 p59) (or (not p18) (not p14) (not p43)) (or (not p56) (not p58) p9) (or (not p55) (not p19) (not p49)) (or (not p10) p40 p51) (or p47 (not p44) p29) (or (not p55) (not p29) (not p2)) (or (not p31) (not p42) p33) (or (not p13) (not p29) (not p22)) (or (not p15) p17 p30) (or (not p23) (not p15) p51) (or p53 (not p53) (not p43)) (or p38 p2 (not p41)) (or p7 (not p2) (not p31)) (or (not p49) (not p51) p45) (or (not p48) p43 (not p48)) (or p59 (not p15) (not p16)) (or (not p46) (not p5) (not p0)) (or p4 (not p17) p56) (or p37 p53 p4) (or p10 p24 p27) (or p56 (not p5) p54) (or (not p3) p9 p30) (or (not p9) p44 (not p54)) (or p4 (not p27) (not p20)) (or (not p21) p7 p10) (or p52 p37 (not p49)) (or (not p31) (not p49) (not p43)) (or p32 (not p52) (not p1)) (or p8 (not p8) p37) (or (not p14) (not p49) (not p7)) (or (not p20) p57 (not p43)) (or p17 (not p18) (not p59)) (or p15 (not p59) (not p51)) (or p37 (not p44) p4) (or p41 p15 p13) (or p1 p38 p38) (or p17 (not p30) p31) (or (not p14) (not p23) p56) (or (not p8) p44 p29) (or p10 p3 (not p13)) (or (not p44) p52 p11) (or (not p14) (not p46) (not p39)) (or (not p31) p47 p5) (or p59 (not p38) p22) (or p9 (not p38) p33) (or p7 (not p51) (not p25)) (or p34 (not p55) p45) (or p9 p58 (not p5)) (or p16 (not p0) p57) (or (not p41) p30 p44) (or (not p44) (not p59) p24) (or p37 p11 (not p58)) (or p4 p8 (not p3)) (or p51 (not p15) p50) (or p53 (not p57) p53) (or p6 (not p34) (not p52)) (or p8 (not p27) (not p19)) (or (not p27) p27 p16) (or (not p23) p34 (not p50)) (or (not p8) p0 p50) (or p45 p51 p52) (or (not p4) (not p25) p40) (or (not p55) (not p29) (not p32)) (or (not p15) (not p57) (not p14)) (or (not p26) (not p4) (not p5)) (or (not p14) (not p58) (not p38)) (or p51 (not p30) p56) (or p14 (not p50) (not p0)) (or p2 (not p34) p21) (or (not p45) (not p33) (not p9)) (or p18 (not p35) p2) (or p32 (not p35) (not p38)) (or (not p16) p40 p18) (or (not p22) (not p45) (not p19)) (or (not p12) (not p15) (not p52)) (or p33 (not p2) p24) (or p16 p48 p11) (or (not p24) p54 (not p7)) (or (not p41) (not p35) (not p58)) (or p27 (not p36) p32) (or p41 p19 p56) (or (not p36) p37 (not p11)) (or (not p41) (not p46) p9) (or (not p24) p30 p5) (or (not p28) p20 p14) (or (not p19) p35 p31) (or (not p9) p24 p42) (or p39 p57 (not p21)) (or p9 (not p13) p4) (or p57 (not p42) (not p55)) (or (not p24) p11 (not p49)) (or (not p27) (not p27) p45) (or p37 p26 (not p36)) (or (not p2) (not p22) p18) (or p25 p18 p3) (or p52 p38 (not p4)) (or p5 p58 (not p47)) (or p18 p5 (not p0)) (or p26 (not p4) p37) (or p17 p22 p40) (or p17 p16 (not p12)) (or (not p2) (not p10) p34) (or p35 p45 (not p27)) (or (not p48) p55 (not p5)) (or (not p56) p11 (not p28)) (or (not p10) (not p32) p13) (or p25 p28 p10) (or (not p16) (not p47) (not p16)) (or p44 (not p19) (not p40)) (or (not p51) p16 p16))
)
(check-sat)
(get-model)
